c preprocessed version of NauruGraph, 24 vertices, 36 edges
p td 24 36
0 1
0 11
0 12
1 13
1 2
10 11
10 22
11 23
12 17
12 19
13 18
13 20
14 19
14 21
15 20
15 22
16 21
16 23
17 22
18 23
2 14
2 3
3 15
3 4
4 16
4 5
5 17
5 6
6 18
6 7
7 19
7 8
8 20
8 9
9 10
9 21
